3287684554449116017 -1 0
3652476363765226346 -2 0
2523359982194267309 -3 0
3699516875920493198 -4 0
840980123666279770 -5 0
h 2 0
h 1 0
606079217085893746 -6 0
1964177352508937694 -7 0
265095303275273293 -8 0
1607374300844064242 -9 0
h 4 0
